p cnf 20 35
-6 20 -7 0
-3 14 9 0
-2 -20 -10 0
2 10 8 0
-3 19 -15 0
8 20 -11 0
4 14 12 0
-12 -1 8 0
13 -6 15 0
-17 -7 -19 0
-1 18 -19 0
6 2 8 0
-2 12 7 0
6 -12 -6 0
-8 -5 13 0
12 8 -15 0
-10 -13 6 0
-14 -4 5 0
19 -7 20 0
16 -16 10 0
6 -6 -11 0
11 -12 -16 0
13 14 17 0
-9 20 -10 0
-8 4 -5 0
20 -7 19 0
-15 -1 10 0
-1 -2 -3 -4 -5 -6 -7 -8 -9 -10 -11 -12 -13 -14 -15 -16 -17 -18 -19 -20 0
9 9 14 0
5 10 -18 0
2 -6 19 0
-13 -10 -16 0
13 2 6 0
1 2 3 4 5 6 7 8 9 10 11 12 13 14 15 16 17 18 19 20 0
4 17 -2 0
